Geographic Exponential Decay
80 102 76 3 198 42 302 287 126 131 91 85 226 123 267 29 244 295 36 230 63 219 200 242 266 53 13 41 189 154 115 253 142 223 43 150 222 71 213 184 33 87 7 93 212 279 69 8 127 109 120 100 143 220 218 151 104 314 234 299 64 32 289 124 171 65 273 44 130 121 270 317 178 75 240 210 22 149 238 55 268
p edge 320 322
e 0 101 1.0
e 1 126 84.0
e 1 0 1.0
e 2 88 1.0
e 2 1 1.0
e 3 99 11.0
e 3 290 59.0
e 3 106 33.0
e 3 2 80.0
e 4 279 83.0
e 4 3 60.0
e 5 237 19.0
e 5 4 23.0
e 6 7 10.0
e 6 5 15.0
e 7 68 74.0
e 7 23 83.0
e 8 156 98.0
e 8 286 78.0
e 8 210 24.0
e 9 252 1.0
e 9 6 1.0
e 10 64 51.0
e 10 9 10.0
e 11 120 28.0
e 12 308 1.0
e 12 10 12.0
e 13 170 26.0
e 13 62 64.0
e 13 285 66.0
e 13 12 58.0
e 14 44 61.0
e 15 108 4.0
e 15 13 88.0
e 16 114 1.0
e 16 15 4.0
e 17 287 40.0
e 18 141 23.0
e 18 16 2.0
e 19 268 76.0
e 20 261 1.0
e 20 18 8.0
e 21 22 82.0
e 21 20 11.0
e 22 24 25.0
e 22 284 58.0
e 25 142 92.0
e 25 21 9.0
e 26 154 68.0
e 27 232 1.0
e 27 25 8.0
e 28 233 1.0
e 28 27 7.0
e 29 242 51.0
e 29 273 100.0
e 29 311 16.0
e 29 28 16.0
e 30 209 1.0
e 30 29 34.0
e 31 297 5.0
e 31 30 2.0
e 32 216 57.0
e 32 71 79.0
e 32 92 21.0
e 32 31 39.0
e 33 71 94.0
e 33 294 97.0
e 33 303 18.0
e 34 171 54.0
e 34 32 27.0
e 35 36 88.0
e 35 34 2.0
e 36 235 26.0
e 36 295 97.0
e 37 265 9.0
e 37 35 2.0
e 38 253 49.0
e 38 37 3.0
e 39 46 2.0
e 39 38 1.0
e 40 54 4.0
e 40 39 6.0
e 41 179 6.0
e 41 243 99.0
e 41 251 79.0
e 41 40 99.0
e 42 43 59.0
e 42 63 31.0
e 42 44 17.0
e 43 164 80.0
e 43 277 50.0
e 44 223 82.0
e 45 124 93.0
e 47 113 1.0
e 47 41 11.0
e 48 125 1.0
e 48 47 6.0
e 49 131 46.0
e 49 48 2.0
e 50 165 2.0
e 50 49 2.0
e 51 193 2.0
e 51 50 1.0
e 52 53 77.0
e 53 150 85.0
e 53 148 66.0
e 55 291 14.0
e 55 129 68.0
e 55 56 99.0
e 55 51 92.0
e 57 190 2.0
e 57 55 18.0
e 58 131 42.0
e 59 105 8.0
e 59 57 1.0
e 60 149 65.0
e 60 59 10.0
e 61 249 2.0
e 61 60 3.0
e 63 287 96.0
e 63 64 21.0
e 64 90 5.0
e 65 147 47.0
e 65 187 18.0
e 65 78 6.0
e 65 61 18.0
e 66 258 2.0
e 66 65 11.0
e 67 68 6.0
e 69 260 81.0
e 69 256 77.0
e 69 70 82.0
e 69 66 54.0
e 71 72 94.0
e 73 282 1.0
e 73 69 20.0
e 74 111 6.0
e 74 73 1.0
e 75 292 12.0
e 75 124 35.0
e 75 77 16.0
e 76 79 2.0
e 76 280 99.0
e 76 80 71.0
e 76 74 53.0
e 81 221 1.0
e 81 76 30.0
e 82 188 6.0
e 82 81 1.0
e 83 254 4.0
e 83 82 1.0
e 84 301 10.0
e 84 83 10.0
e 85 247 69.0
e 85 86 77.0
e 85 109 46.0
e 87 89 11.0
e 87 91 88.0
e 87 117 20.0
e 87 84 11.0
e 91 93 64.0
e 91 94 63.0
e 93 250 6.0
e 93 304 19.0
e 95 197 1.0
e 95 87 89.0
e 96 198 18.0
e 97 305 5.0
e 97 95 2.0
e 98 100 91.0
e 98 97 7.0
e 100 217 62.0
e 100 102 7.0
e 102 146 76.0
e 102 306 56.0
e 103 171 54.0
e 104 107 60.0
e 104 109 88.0
e 104 110 14.0
e 109 222 72.0
e 112 158 11.0
e 112 98 1.0
e 115 167 5.0
e 115 116 66.0
e 115 118 54.0
e 115 112 45.0
e 119 205 4.0
e 119 115 99.0
e 120 227 35.0
e 120 121 75.0
e 121 122 35.0
e 121 123 45.0
e 123 124 74.0
e 123 287 68.0
e 126 127 78.0
e 126 283 21.0
e 127 268 9.0
e 127 246 44.0
e 128 231 1.0
e 128 119 21.0
e 130 262 38.0
e 130 316 88.0
e 130 131 92.0
e 132 307 5.0
e 132 128 1.0
e 133 134 4.0
e 133 132 8.0
e 135 211 1.0
e 135 133 3.0
e 136 263 1.0
e 136 135 5.0
e 137 138 4.0
e 137 136 2.0
e 139 253 6.0
e 140 259 1.0
e 140 137 3.0
e 142 143 59.0
e 142 274 31.0
e 143 144 31.0
e 143 145 77.0
e 149 175 19.0
e 149 176 84.0
e 150 151 7.0
e 150 293 68.0
e 151 152 39.0
e 151 234 16.0
e 153 210 8.0
e 154 267 4.0
e 154 218 80.0
e 155 195 1.0
e 155 140 4.0
e 157 159 2.0
e 157 155 4.0
e 160 161 1.0
e 160 157 2.0
e 162 163 4.0
e 162 160 1.0
e 166 200 98.0
e 166 162 1.0
e 168 169 1.0
e 168 166 4.0
e 171 172 41.0
e 173 174 1.0
e 173 168 3.0
e 177 178 66.0
e 177 173 4.0
e 178 278 45.0
e 178 180 73.0
e 181 248 4.0
e 181 177 3.0
e 182 253 40.0
e 183 273 24.0
e 184 185 55.0
e 184 186 2.0
e 184 189 79.0
e 184 181 71.0
e 189 191 66.0
e 189 255 29.0
e 192 295 49.0
e 194 196 1.0
e 194 184 65.0
e 198 295 31.0
e 198 199 88.0
e 200 201 46.0
e 200 202 37.0
e 203 296 1.0
e 203 194 1.0
e 204 206 3.0
e 204 203 1.0
e 207 208 5.0
e 207 204 1.0
e 210 266 62.0
e 212 213 93.0
e 212 218 50.0
e 212 214 42.0
e 213 215 19.0
e 213 218 27.0
e 219 220 33.0
e 219 222 1.0
e 219 223 86.0
e 220 222 31.0
e 220 223 44.0
e 224 271 1.0
e 224 207 1.0
e 225 270 28.0
e 226 228 74.0
e 226 229 48.0
e 226 230 21.0
e 230 234 60.0
e 230 236 27.0
e 234 238 63.0
e 238 239 45.0
e 238 240 64.0
e 240 241 4.0
e 240 242 77.0
e 242 244 15.0
e 244 245 3.0
e 244 257 22.0
e 264 269 5.0
e 264 224 5.0
e 266 267 68.0
e 266 268 27.0
e 267 312 94.0
e 270 272 71.0
e 270 273 45.0
e 275 276 2.0
e 275 264 1.0
e 279 281 100.0
e 279 288 29.0
e 289 298 16.0
e 289 299 74.0
e 289 300 77.0
e 289 275 99.0
e 299 302 85.0
e 299 309 90.0
e 302 310 68.0
e 302 313 68.0
e 314 315 68.0
e 314 316 45.0
e 314 317 15.0
e 317 318 64.0
e 317 319 66.0
